\ Model Cutting Stock Problem
\ LP format - for model browsing. Use MPS format to capture full model detail.
Minimize
  29310.489 x[0] + 75659.8815 x[1] + 178172.6922 x[2] + 116107.182 x[3]
   + 11960.6286 x[4] + 74439.2166 x[5] + 140227.216 x[6]
Subject To
 R0: 29310.489 x[0] + 75659.8815 x[1] + 178172.6922 x[2] + 116107.182 x[3]
   + 11960.6286 x[4] + 74439.2166 x[5] + 140227.216 x[6]
   <= 7.6269969464999996e+06
 R1: x[0] >= 8.68
 R2: x[1] >= 3.78
 R3: x[2] >= 7.18
 R4: x[3] >= 5.85
 R5: x[4] >= 3.04
 R6: x[5] >= 0.56
 R7: x[6] >= 6.2
Bounds
End
